g3 0 1 0	# problem d5n8R4R6d01d05
 8 9 1 0 4	# vars, constraints, objectives, ranges, eqns
 4 1	# nonlinear constraints, objectives
 0 0	# network constraints: nonlinear, linear
 8 8 8	# nonlinear vars in constraints, objectives, both
 0 0 0 1	# linear network variables; functions; arith, flags
 0 0 0 0 0	# discrete variables: binary, integer, nonlinear (b,c,o)
 56 8	# nonzeros in Jacobian, gradients
 0 0	# max name lengths: constraints, variables
 0 0 0 0 0	# common exprs: b,c,o,c1,o1
b
0 0.16 2.83
0 0.41 2.4
0 0.35 2.79
0 0.2 2.34
0 0.58 2.91
0 0.19 2.63
0 0.83 2.18
0 0.44 2.66
r
2 101.391
2 314.236
2 797.141
2 3764.77
4 40.133
4 19.72
4 30.531
4 22.568
2 44.803
C0
o54
5
o2
o2
n3.96
v0
v0
o2
o2
n7.1
v0
v3
o2
o2
n2.21
v3
v4
o2
o2
n5.57
v4
v6
o2
o2
n3.55
v7
v7
C1
o54
15
o2
o2
n1.64
v0
v0
o2
o2
n6.91
v0
v3
o2
o2
n9.53
v3
v4
o2
o2
n9.68
v4
v6
o2
o2
n8.2
v7
v7
o2
o2
o2
n6.86
v0
v0
v5
o2
o2
o2
n3.65
v0
v1
v5
o2
o2
o2
n0.27
v0
v1
v6
o2
o2
o2
n3.47
v0
v3
v7
o2
o2
o2
n8.26
v0
v4
v5
o2
o2
o2
n1.97
v1
v2
v2
o2
o2
o2
n3.87
v1
v3
v5
o2
o2
o2
n6.94
v1
v4
v6
o2
o2
o2
n8.84
v3
v6
v6
o2
o2
o2
n7.33
v4
v5
v5
C2
o54
42
o2
o2
n7.53
v0
v0
o16
o2
o2
n7.18
v0
v3
o2
o2
n5.24
v3
v4
o2
o2
n0.62
v4
v6
o2
o2
n1.62
v7
v7
o2
o2
o2
n9.26
v0
v0
v5
o2
o2
o2
n1.05
v0
v1
v5
o2
o2
o2
n2.31
v0
v1
v6
o2
o2
o2
n3.52
v0
v3
v7
o2
o2
o2
n5.03
v0
v4
v5
o2
o2
o2
n5.86
v1
v2
v2
o2
o2
o2
n2.87
v1
v3
v5
o2
o2
o2
n0.95
v1
v4
v6
o2
o2
o2
n6.01
v3
v6
v6
o2
o2
o2
n1.12
v4
v5
v5
o2
o2
o2
o2
n3.43
v0
v0
v0
v2
o2
o2
o2
o2
n7.7
v0
v0
v2
v5
o2
o2
o2
o2
n0.67
v0
v1
v2
v3
o2
o2
o2
o2
n2.98
v0
v1
v3
v3
o2
o2
o2
o2
n0.22
v0
v2
v3
v4
o2
o2
o2
o2
n6.28
v0
v2
v4
v5
o2
o2
o2
o2
n8.64
v0
v2
v5
v5
o2
o2
o2
o2
n0.67
v0
v3
v3
v5
o2
o2
o2
o2
n9.5
v0
v3
v6
v7
o2
o2
o2
o2
n1.9
v0
v4
v4
v5
o2
o2
o2
o2
n6.21
v0
v4
v7
v7
o2
o2
o2
o2
n6.07
v0
v5
v5
v6
o2
o2
o2
o2
n3.7
v1
v1
v1
v3
o2
o2
o2
o2
n7.65
v1
v1
v1
v6
o16
o2
o2
o2
o2
n3.15
v1
v1
v3
v6
o2
o2
o2
o2
n4.46
v1
v1
v4
v5
o2
o2
o2
o2
n8.76
v1
v2
v3
v7
o2
o2
o2
o2
n0.95
v1
v3
v3
v4
o2
o2
o2
o2
n0.64
v1
v3
v3
v6
o2
o2
o2
o2
n6.68
v1
v4
v4
v4
o2
o2
o2
o2
n2.82
v1
v5
v6
v6
o2
o2
o2
o2
n1.23
v2
v2
v2
v7
o2
o2
o2
o2
n0.58
v3
v3
v4
v5
o2
o2
o2
o2
n2.39
v3
v3
v5
v6
o2
o2
o2
o2
n6.04
v3
v5
v6
v6
o2
o2
o2
o2
n8.9
v4
v4
v4
v7
o2
o2
o2
o2
n6.08
v4
v4
v6
v6
C3
o54
128
o2
o2
n4.39
v0
v0
o2
o2
n5.77
v0
v3
o2
o2
n7.69
v3
v4
o2
o2
n0.93
v4
v6
o2
o2
n3.68
v7
v7
o2
o2
o2
n4.34
v0
v0
v5
o2
o2
o2
n1.43
v0
v1
v5
o2
o2
o2
n1.8
v0
v1
v6
o2
o2
o2
n1.08
v0
v3
v7
o2
o2
o2
n7.14
v0
v4
v5
o2
o2
o2
n9.7
v1
v2
v2
o2
o2
o2
n7.25
v1
v3
v5
o2
o2
o2
n9.01
v1
v4
v6
o2
o2
o2
n4.19
v3
v6
v6
o2
o2
o2
n6.56
v4
v5
v5
o2
o2
o2
o2
n8.32
v0
v0
v0
v2
o2
o2
o2
o2
n6.97
v0
v0
v2
v5
o2
o2
o2
o2
n1.74
v0
v1
v2
v3
o2
o2
o2
o2
n4.67
v0
v1
v3
v3
o2
o2
o2
o2
n5.82
v0
v2
v3
v4
o2
o2
o2
o2
n4.87
v0
v2
v4
v5
o2
o2
o2
o2
n2.17
v0
v2
v5
v5
o2
o2
o2
o2
n4.2
v0
v3
v3
v5
o2
o2
o2
o2
n0.85
v0
v3
v6
v7
o2
o2
o2
o2
n7.6
v0
v4
v4
v5
o2
o2
o2
o2
n5.1
v0
v4
v7
v7
o2
o2
o2
o2
n3.07
v0
v5
v5
v6
o2
o2
o2
o2
n6.52
v1
v1
v1
v3
o2
o2
o2
o2
n0.82
v1
v1
v1
v6
o2
o2
o2
o2
n9.78
v1
v1
v3
v6
o2
o2
o2
o2
n8.35
v1
v1
v4
v5
o2
o2
o2
o2
n0.99
v1
v2
v3
v7
o2
o2
o2
o2
n8.07
v1
v3
v3
v4
o2
o2
o2
o2
n8.72
v1
v3
v3
v6
o16
o2
o2
o2
o2
n8.99
v1
v4
v4
v4
o2
o2
o2
o2
n1.73
v1
v5
v6
v6
o2
o2
o2
o2
n9.07
v2
v2
v2
v7
o2
o2
o2
o2
n2.57
v3
v3
v4
v5
o2
o2
o2
o2
n9.75
v3
v3
v5
v6
o16
o2
o2
o2
v3
v5
v6
v6
o2
o2
o2
o2
n9.28
v4
v4
v4
v7
o2
o2
o2
o2
n6.29
v4
v4
v6
v6
o2
o2
o2
o2
o2
n6.38
v0
v0
v0
v0
v3
o2
o2
o2
o2
o2
n2.63
v0
v0
v0
v0
v7
o2
o2
o2
o2
o2
n0.76
v0
v0
v0
v1
v2
o2
o2
o2
o2
o2
n6.47
v0
v0
v0
v1
v4
o2
o2
o2
o2
o2
n2.11
v0
v0
v0
v1
v6
o2
o2
o2
o2
o2
n0.02
v0
v0
v0
v1
v7
o2
o2
o2
o2
o2
n4.18
v0
v0
v0
v6
v7
o2
o2
o2
o2
o2
n9.99
v0
v0
v1
v3
v6
o2
o2
o2
o2
o2
n5.3
v0
v0
v1
v3
v7
o2
o2
o2
o2
o2
n5.41
v0
v0
v1
v4
v6
o2
o2
o2
o2
o2
n2.2
v0
v0
v1
v4
v7
o2
o2
o2
o2
o2
n3.93
v0
v0
v1
v5
v6
o2
o2
o2
o2
o2
n8.41
v0
v0
v2
v2
v5
o2
o2
o2
o2
o2
n0.36
v0
v0
v3
v3
v7
o2
o2
o2
o2
o2
n4.01
v0
v0
v5
v5
v5
o2
o2
o2
o2
o2
n6.67
v0
v0
v5
v5
v6
o2
o2
o2
o2
o2
n8.18
v0
v1
v1
v1
v6
o2
o2
o2
o2
o2
n7.52
v0
v1
v2
v3
v3
o2
o2
o2
o2
o2
n1.15
v0
v1
v2
v4
v4
o2
o2
o2
o2
o2
n0.28
v0
v1
v4
v4
v6
o2
o2
o2
o2
o2
n7.09
v0
v1
v5
v6
v7
o2
o2
o2
o2
o2
n3.68
v0
v2
v2
v3
v5
o2
o2
o2
o2
o2
n4.58
v0
v2
v2
v5
v6
o2
o2
o2
o2
o2
n4.16
v0
v2
v2
v6
v7
o2
o2
o2
o2
o2
n6.06
v0
v2
v3
v6
v7
o2
o2
o2
o2
o2
n3.95
v0
v2
v4
v4
v5
o2
o2
o2
o2
o2
n3.02
v0
v2
v4
v5
v7
o2
o2
o2
o2
o2
n9.92
v0
v3
v3
v3
v3
o2
o2
o2
o2
o2
n8.35
v0
v3
v3
v3
v4
o16
o2
o2
o2
o2
o2
n7.33
v0
v3
v3
v3
v6
o2
o2
o2
o2
o2
n2.48
v0
v3
v4
v4
v5
o2
o2
o2
o2
o2
n7.5
v0
v4
v4
v7
v7
o2
o2
o2
o2
o2
n4.83
v0
v5
v5
v5
v7
o2
o2
o2
o2
o2
n3.44
v0
v5
v6
v6
v6
o2
o2
o2
o2
o2
n7.15
v1
v1
v1
v1
v4
o2
o2
o2
o2
o2
n2.57
v1
v1
v1
v1
v5
o2
o2
o2
o2
o2
n0.36
v1
v1
v1
v2
v3
o2
o2
o2
o2
o2
n0.53
v1
v1
v1
v2
v6
o2
o2
o2
o2
o2
n1.38
v1
v1
v1
v6
v7
o2
o2
o2
o2
o2
n5.16
v1
v1
v2
v6
v6
o2
o2
o2
o2
o2
n1.52
v1
v1
v3
v6
v6
o2
o2
o2
o2
o2
n4.75
v1
v1
v4
v4
v7
o2
o2
o2
o2
o2
n3.07
v1
v1
v5
v6
v7
o2
o2
o2
o2
o2
n9.54
v1
v2
v2
v2
v5
o2
o2
o2
o2
o2
n5.54
v1
v2
v2
v3
v7
o2
o2
o2
o2
o2
n0.64
v1
v2
v2
v4
v5
o2
o2
o2
o2
o2
n8.21
v1
v2
v2
v4
v7
o2
o2
o2
o2
o2
n5.34
v1
v2
v3
v3
v6
o2
o2
o2
o2
o2
n0.5
v1
v2
v4
v5
v5
o2
o2
o2
o2
o2
n2.92
v1
v2
v4
v5
v7
o2
o2
o2
o2
o2
n6.72
v1
v2
v4
v6
v6
o2
o2
o2
o2
o2
n9.97
v1
v2
v4
v6
v7
o2
o2
o2
o2
o2
n6.79
v1
v2
v6
v6
v6
o2
o2
o2
o2
o2
n9.44
v1
v2
v6
v7
v7
o2
o2
o2
o2
o2
n9.48
v1
v3
v3
v3
v5
o2
o2
o2
o2
o2
n2.21
v1
v3
v4
v5
v5
o2
o2
o2
o2
o2
n9.77
v1
v3
v4
v7
v7
o16
o2
o2
o2
o2
o2
n5.5
v1
v4
v5
v5
v6
o2
o2
o2
o2
o2
n6.72
v1
v5
v5
v6
v7
o2
o2
o2
o2
o2
n7.1
v1
v6
v6
v7
v7
o2
o2
o2
o2
o2
n3.75
v2
v2
v2
v2
v5
o2
o2
o2
o2
o2
n9.33
v2
v2
v2
v3
v3
o2
o2
o2
o2
o2
n7.51
v2
v2
v2
v4
v5
o2
o2
o2
o2
o2
n2.1
v2
v2
v3
v5
v7
o2
o2
o2
o2
o2
n7.17
v2
v2
v4
v6
v6
o2
o2
o2
o2
o2
n8.83
v2
v3
v3
v4
v6
o2
o2
o2
o2
o2
n0.63
v2
v3
v3
v5
v6
o2
o2
o2
o2
o2
n4.46
v2
v3
v3
v6
v6
o2
o2
o2
o2
o2
n9.06
v2
v3
v3
v7
v7
o2
o2
o2
o2
o2
n9.61
v2
v3
v4
v4
v6
o2
o2
o2
o2
o2
n6.63
v2
v4
v6
v6
v7
o16
o2
o2
o2
o2
o2
n9.85
v2
v5
v6
v6
v6
o2
o2
o2
o2
o2
n6.69
v2
v5
v6
v6
v7
o2
o2
o2
o2
o2
n4.24
v2
v7
v7
v7
v7
o2
o2
o2
o2
o2
n1.16
v3
v3
v3
v4
v7
o2
o2
o2
o2
o2
n2.22
v3
v3
v3
v5
v7
o2
o2
o2
o2
o2
n4.58
v3
v3
v4
v7
v7
o2
o2
o2
o2
o2
n2.74
v3
v3
v6
v6
v7
o2
o2
o2
o2
o2
n9.51
v3
v4
v4
v4
v6
o2
o2
o2
o2
o2
n4.97
v3
v4
v5
v5
v5
o2
o2
o2
o2
o2
n4.65
v3
v4
v7
v7
v7
o2
o2
o2
o2
o2
n4.35
v3
v6
v7
v7
v7
o2
o2
o2
o2
o2
n2.46
v4
v5
v5
v5
v5
o2
o2
o2
o2
o2
n3.32
v4
v5
v5
v5
v6
o2
o2
o2
o2
o2
n7.68
v4
v5
v6
v7
v7
o2
o2
o2
o2
o2
n0.55
v5
v5
v6
v7
v7
C4
n0
C5
n0
C6
n0
C7
n0
C8
n0
O0 0
o54
128
o2
o2
n8.86
v0
v0
o2
o2
n0.4
v0
v3
o2
o2
n9.38
v3
v4
o2
o2
n6.43
v4
v6
o2
o2
n5.97
v7
v7
o2
o2
o2
n9.81
v0
v0
v5
o2
o2
o2
n4.86
v0
v1
v5
o2
o2
o2
n0.92
v0
v1
v6
o2
o2
o2
n7.6
v0
v3
v7
o2
o2
o2
n6.16
v0
v4
v5
o2
o2
o2
n4.36
v1
v2
v2
o2
o2
o2
n0.48
v1
v3
v5
o2
o2
o2
n9.21
v1
v4
v6
o2
o2
o2
n6.91
v3
v6
v6
o2
o2
o2
n8.76
v4
v5
v5
o2
o2
o2
o2
n7.32
v0
v0
v0
v2
o2
o2
o2
o2
n0.87
v0
v0
v2
v5
o2
o2
o2
o2
n3.23
v0
v1
v2
v3
o2
o2
o2
o2
n4.99
v0
v1
v3
v3
o2
o2
o2
o2
n0.94
v0
v2
v3
v4
o2
o2
o2
o2
n0.53
v0
v2
v4
v5
o2
o2
o2
o2
n9.92
v0
v2
v5
v5
o2
o2
o2
o2
n5.04
v0
v3
v3
v5
o2
o2
o2
o2
n8.59
v0
v3
v6
v7
o2
o2
o2
o2
n8.62
v0
v4
v4
v5
o2
o2
o2
o2
n6.51
v0
v4
v7
v7
o16
o2
o2
o2
o2
n6.12
v0
v5
v5
v6
o2
o2
o2
o2
n7.06
v1
v1
v1
v3
o2
o2
o2
o2
n3.84
v1
v1
v1
v6
o2
o2
o2
o2
n9.68
v1
v1
v3
v6
o2
o2
o2
o2
n2.09
v1
v1
v4
v5
o2
o2
o2
o2
n5.7
v1
v2
v3
v7
o2
o2
o2
o2
n0.29
v1
v3
v3
v4
o16
o2
o2
o2
o2
n6.87
v1
v3
v3
v6
o2
o2
o2
o2
n6.2
v1
v4
v4
v4
o2
o2
o2
o2
n0.63
v1
v5
v6
v6
o2
o2
o2
o2
n5.72
v2
v2
v2
v7
o2
o2
o2
o2
n1.16
v3
v3
v4
v5
o2
o2
o2
o2
n5
v3
v3
v5
v6
o2
o2
o2
o2
n0.29
v3
v5
v6
v6
o2
o2
o2
o2
n1.17
v4
v4
v4
v7
o2
o2
o2
o2
n7.4
v4
v4
v6
v6
o16
o2
o2
o2
o2
o2
n3.55
v0
v0
v0
v0
v3
o2
o2
o2
o2
o2
n2.19
v0
v0
v0
v0
v7
o2
o2
o2
o2
o2
n1.7
v0
v0
v0
v1
v2
o2
o2
o2
o2
o2
n9.61
v0
v0
v0
v1
v4
o2
o2
o2
o2
o2
n1.88
v0
v0
v0
v1
v6
o2
o2
o2
o2
o2
n0.88
v0
v0
v0
v1
v7
o2
o2
o2
o2
o2
n8.57
v0
v0
v0
v6
v7
o2
o2
o2
o2
o2
n9.62
v0
v0
v1
v3
v6
o2
o2
o2
o2
o2
n2.63
v0
v0
v1
v3
v7
o2
o2
o2
o2
o2
n7.29
v0
v0
v1
v4
v6
o2
o2
o2
o2
o2
n2.47
v0
v0
v1
v4
v7
o2
o2
o2
o2
o2
n6.9
v0
v0
v1
v5
v6
o2
o2
o2
o2
o2
n0.06
v0
v0
v2
v2
v5
o2
o2
o2
o2
o2
n9.13
v0
v0
v3
v3
v7
o2
o2
o2
o2
o2
n8.13
v0
v0
v5
v5
v5
o2
o2
o2
o2
o2
n9.78
v0
v0
v5
v5
v6
o2
o2
o2
o2
o2
n0.22
v0
v1
v1
v1
v6
o2
o2
o2
o2
o2
n2.76
v0
v1
v2
v3
v3
o2
o2
o2
o2
o2
n0.14
v0
v1
v2
v4
v4
o2
o2
o2
o2
o2
n7.72
v0
v1
v4
v4
v6
o2
o2
o2
o2
o2
n2.38
v0
v1
v5
v6
v7
o16
o2
o2
o2
o2
o2
n6.11
v0
v2
v2
v3
v5
o2
o2
o2
o2
o2
n0.02
v0
v2
v2
v5
v6
o2
o2
o2
o2
o2
n5.07
v0
v2
v2
v6
v7
o2
o2
o2
o2
o2
n1.75
v0
v2
v3
v6
v7
o2
o2
o2
o2
o2
n2.98
v0
v2
v4
v4
v5
o2
o2
o2
o2
o2
n4.52
v0
v2
v4
v5
v7
o2
o2
o2
o2
o2
n5.84
v0
v3
v3
v3
v3
o2
o2
o2
o2
o2
n3.4
v0
v3
v3
v3
v4
o2
o2
o2
o2
o2
n8.52
v0
v3
v3
v3
v6
o2
o2
o2
o2
o2
n5.21
v0
v3
v4
v4
v5
o2
o2
o2
o2
o2
n9.91
v0
v4
v4
v7
v7
o2
o2
o2
o2
o2
n7.48
v0
v5
v5
v5
v7
o2
o2
o2
o2
o2
n6.04
v0
v5
v6
v6
v6
o2
o2
o2
o2
o2
n9.31
v1
v1
v1
v1
v4
o2
o2
o2
o2
o2
n0.36
v1
v1
v1
v1
v5
o2
o2
o2
o2
o2
n5.66
v1
v1
v1
v2
v3
o2
o2
o2
o2
o2
n4.96
v1
v1
v1
v2
v6
o2
o2
o2
o2
o2
n1.73
v1
v1
v1
v6
v7
o2
o2
o2
o2
o2
n2.15
v1
v1
v2
v6
v6
o2
o2
o2
o2
o2
n8.82
v1
v1
v3
v6
v6
o2
o2
o2
o2
o2
n0.1
v1
v1
v4
v4
v7
o2
o2
o2
o2
o2
n8.41
v1
v1
v5
v6
v7
o2
o2
o2
o2
o2
n1.96
v1
v2
v2
v2
v5
o2
o2
o2
o2
o2
n5.97
v1
v2
v2
v3
v7
o2
o2
o2
o2
o2
n2.18
v1
v2
v2
v4
v5
o2
o2
o2
o2
o2
n0.9
v1
v2
v2
v4
v7
o2
o2
o2
o2
o2
n9.36
v1
v2
v3
v3
v6
o2
o2
o2
o2
o2
n4.5
v1
v2
v4
v5
v5
o2
o2
o2
o2
o2
n9.57
v1
v2
v4
v5
v7
o2
o2
o2
o2
o2
n2.16
v1
v2
v4
v6
v6
o16
o2
o2
o2
o2
o2
n9.17
v1
v2
v4
v6
v7
o2
o2
o2
o2
o2
n1.59
v1
v2
v6
v6
v6
o2
o2
o2
o2
o2
n1.31
v1
v2
v6
v7
v7
o2
o2
o2
o2
o2
n3.62
v1
v3
v3
v3
v5
o2
o2
o2
o2
o2
n5.08
v1
v3
v4
v5
v5
o2
o2
o2
o2
o2
n6.91
v1
v3
v4
v7
v7
o2
o2
o2
o2
o2
n1.37
v1
v4
v5
v5
v6
o16
o2
o2
o2
o2
o2
n3.53
v1
v5
v5
v6
v7
o2
o2
o2
o2
o2
n4.57
v1
v6
v6
v7
v7
o2
o2
o2
o2
o2
n6.56
v2
v2
v2
v2
v5
o2
o2
o2
o2
o2
n4.14
v2
v2
v2
v3
v3
o2
o2
o2
o2
o2
n6.54
v2
v2
v2
v4
v5
o2
o2
o2
o2
o2
n5.03
v2
v2
v3
v5
v7
o16
o2
o2
o2
o2
o2
n8.27
v2
v2
v4
v6
v6
o2
o2
o2
o2
o2
n1.21
v2
v3
v3
v4
v6
o2
o2
o2
o2
o2
n4.46
v2
v3
v3
v5
v6
o2
o2
o2
o2
o2
n1.12
v2
v3
v3
v6
v6
o2
o2
o2
o2
o2
n7.87
v2
v3
v3
v7
v7
o2
o2
o2
o2
o2
n9.35
v2
v3
v4
v4
v6
o2
o2
o2
o2
o2
n8.41
v2
v4
v6
v6
v7
o16
o2
o2
o2
o2
o2
n3.41
v2
v5
v6
v6
v6
o2
o2
o2
o2
o2
n6.93
v2
v5
v6
v6
v7
o2
o2
o2
o2
o2
n9.8
v2
v7
v7
v7
v7
o2
o2
o2
o2
o2
n2.05
v3
v3
v3
v4
v7
o2
o2
o2
o2
o2
n8.31
v3
v3
v3
v5
v7
o2
o2
o2
o2
o2
n1.76
v3
v3
v4
v7
v7
o2
o2
o2
o2
o2
n8.75
v3
v3
v6
v6
v7
o2
o2
o2
o2
o2
n6.25
v3
v4
v4
v4
v6
o2
o2
o2
o2
o2
n9.12
v3
v4
v5
v5
v5
o2
o2
o2
o2
o2
n3.59
v3
v4
v7
v7
v7
o2
o2
o2
o2
o2
n9.13
v3
v6
v7
v7
v7
o2
o2
o2
o2
o2
n4.82
v4
v5
v5
v5
v5
o2
o2
o2
o2
o2
n8.49
v4
v5
v5
v5
v6
o2
o2
o2
o2
o2
n9.98
v4
v5
v6
v7
v7
o2
o2
o2
o2
o2
n3.58
v5
v5
v6
v7
v7
k7
6
15
22
28
35
42
50
J0 8
0 4.59
1 2.94
2 2
3 2.1
4 8.18
5 6.69
6 3.33
7 3.54
J1 8
0 3.17
1 9.6
2 7.55
3 7.45
4 6.47
5 2.18
6 2.76
7 4.03
J2 8
0 4.65
1 5.68
2 7.42
3 4.61
4 8.12
5 1.15
6 4.67
7 8.21
J3 8
0 4.66
1 1.78
2 5.53
3 3.23
4 5.79
5 8.98
6 5.3
7 4.08
J4 4
1 7.57
2 5.69
5 5.01
6 8.97
J5 4
1 4.62
4 0.68
6 4.85
7 3.06
J6 4
0 8.82
1 6.11
4 1.78
5 4.01
J7 4
1 4.68
2 1.45
3 1.45
6 7.89
J8 8
0 7.1
1 8.12
2 -8.07
3 5.15
4 2.79
5 0.21
6 9.67
7 5.93
G0 8
0 8.04
1 0.72
2 2.56
3 5.81
4 3.3
5 5.58
6 5.46
7 2.79
